certificates/rado_a10_c254_N30.cnf
c Rad2 upper bound instance: x1 + 10*x2 - x3 = 254, interval [1,30]
p cnf 30 180
1 7 26 0
-1 -7 -26 0
1 17 27 0
-1 -17 -27 0
1 27 28 0
-1 -27 -28 0
2 8 26 0
-2 -8 -26 0
2 18 27 0
-2 -18 -27 0
2 28 0
-2 -28 0
3 9 26 0
-3 -9 -26 0
3 19 27 0
-3 -19 -27 0
3 28 29 0
-3 -28 -29 0
4 10 26 0
-4 -10 -26 0
4 20 27 0
-4 -20 -27 0
4 28 30 0
-4 -28 -30 0
1 5 25 0
-1 -5 -25 0
5 11 26 0
-5 -11 -26 0
5 21 27 0
-5 -21 -27 0
2 6 25 0
-2 -6 -25 0
6 12 26 0
-6 -12 -26 0
6 22 27 0
-6 -22 -27 0
3 7 25 0
-3 -7 -25 0
7 13 26 0
-7 -13 -26 0
7 23 27 0
-7 -23 -27 0
4 8 25 0
-4 -8 -25 0
8 14 26 0
-8 -14 -26 0
8 24 27 0
-8 -24 -27 0
5 9 25 0
-5 -9 -25 0
9 15 26 0
-9 -15 -26 0
9 25 27 0
-9 -25 -27 0
6 10 25 0
-6 -10 -25 0
10 16 26 0
-10 -16 -26 0
10 26 27 0
-10 -26 -27 0
7 11 25 0
-7 -11 -25 0
11 17 26 0
-11 -17 -26 0
11 27 0
-11 -27 0
8 12 25 0
-8 -12 -25 0
12 18 26 0
-12 -18 -26 0
12 27 28 0
-12 -27 -28 0
9 13 25 0
-9 -13 -25 0
13 19 26 0
-13 -19 -26 0
13 27 29 0
-13 -27 -29 0
10 14 25 0
-10 -14 -25 0
14 20 26 0
-14 -20 -26 0
14 27 30 0
-14 -27 -30 0
1 15 24 0
-1 -15 -24 0
11 15 25 0
-11 -15 -25 0
15 21 26 0
-15 -21 -26 0
2 16 24 0
-2 -16 -24 0
12 16 25 0
-12 -16 -25 0
16 22 26 0
-16 -22 -26 0
3 17 24 0
-3 -17 -24 0
13 17 25 0
-13 -17 -25 0
17 23 26 0
-17 -23 -26 0
4 18 24 0
-4 -18 -24 0
14 18 25 0
-14 -18 -25 0
18 24 26 0
-18 -24 -26 0
5 19 24 0
-5 -19 -24 0
15 19 25 0
-15 -19 -25 0
19 25 26 0
-19 -25 -26 0
6 20 24 0
-6 -20 -24 0
16 20 25 0
-16 -20 -25 0
20 26 0
-20 -26 0
7 21 24 0
-7 -21 -24 0
17 21 25 0
-17 -21 -25 0
21 26 27 0
-21 -26 -27 0
8 22 24 0
-8 -22 -24 0
18 22 25 0
-18 -22 -25 0
22 26 28 0
-22 -26 -28 0
9 23 24 0
-9 -23 -24 0
19 23 25 0
-19 -23 -25 0
23 26 29 0
-23 -26 -29 0
10 24 0
-10 -24 0
20 24 25 0
-20 -24 -25 0
24 26 30 0
-24 -26 -30 0
1 23 25 0
-1 -23 -25 0
11 24 25 0
-11 -24 -25 0
21 25 0
-21 -25 0
2 23 26 0
-2 -23 -26 0
12 24 26 0
-12 -24 -26 0
22 25 26 0
-22 -25 -26 0
3 23 27 0
-3 -23 -27 0
13 24 27 0
-13 -24 -27 0
23 25 27 0
-23 -25 -27 0
4 23 28 0
-4 -23 -28 0
14 24 28 0
-14 -24 -28 0
24 25 28 0
-24 -25 -28 0
5 23 29 0
-5 -23 -29 0
15 24 29 0
-15 -24 -29 0
25 29 0
-25 -29 0
6 23 30 0
-6 -23 -30 0
16 24 30 0
-16 -24 -30 0
25 26 30 0
-25 -26 -30 0
