certificates/rado_a10_c254_N30.drat
-28 -29 -30 0
-29 -30 0
d -28 -29 -30 0
-30 0
28 29 0
29 0
-25 0
21 0
26 0
-20 0
-23 0
-27 0
-15 0
16 0
24 0
7 0
19 0
1 0
0
